p cnf 45 71
26 0
-1 26 0
1 -26 0
27 0
-2 27 0
2 -27 0
28 0
-3 28 0
3 -28 0
29 0
-4 29 0
4 -29 0
30 0
-5 30 0
5 -30 0
31 0
-6 31 0
6 -31 0
32 0
-7 32 0
7 -32 0
33 0
-8 33 0
8 -33 0
34 0
-9 34 0
9 -34 0
35 -21 -15 0
-35 21 0
-35 15 0
36 -25 0
-36 25 0
-10 35 36 0
10 -35 0
10 -36 0
37 -12 0
-37 12 0
-13 37 0
13 -37 0
38 -14 0
-38 14 0
39 -20 -24 0
-39 20 0
-39 24 0
40 -23 -25 0
-40 23 0
-40 25 0
-15 38 39 40 0
15 -38 0
15 -39 0
15 -40 0
41 -22 -15 0
-41 22 0
-41 15 0
42 -24 0
-42 24 0
-17 41 42 0
17 -41 0
17 -42 0
43 -19 0
-43 19 0
-18 43 0
18 -43 0
44 -16 0
-44 16 0
-24 44 0
24 -44 0
45 -11 0
-45 11 0
-25 45 0
25 -45 0
c p weight 1 1.0;1.0;1.0;1.0;1.0 0
c p weight -1 1.0;1.0;1.0;1.0;1.0 0
c p weight 2 1.0;1.0;1.0;1.0;1.0 0
c p weight -2 1.0;1.0;1.0;1.0;1.0 0
c p weight 3 1.0;1.0;1.0;1.0;1.0 0
c p weight -3 1.0;1.0;1.0;1.0;1.0 0
c p weight 4 1.0;1.0;1.0;1.0;1.0 0
c p weight -4 1.0;1.0;1.0;1.0;1.0 0
c p weight 5 1.0;1.0;1.0;1.0;1.0 0
c p weight -5 1.0;1.0;1.0;1.0;1.0 0
c p weight 6 1.0;1.0;1.0;1.0;1.0 0
c p weight -6 1.0;1.0;1.0;1.0;1.0 0
c p weight 7 1.0;1.0;1.0;1.0;1.0 0
c p weight -7 1.0;1.0;1.0;1.0;1.0 0
c p weight 8 1.0;1.0;1.0;1.0;1.0 0
c p weight -8 1.0;1.0;1.0;1.0;1.0 0
c p weight 9 1.0;1.0;1.0;1.0;1.0 0
c p weight -9 1.0;1.0;1.0;1.0;1.0 0
c p weight 10 1.0;1.0;1.0;1.0;1.0 0
c p weight -10 0.0;1.0;1.0;1.0;1.0 0
c p weight 11 0.5;0.5;0.5;0.5;0.5 0
c p weight -11 0.5;0.5;0.5;0.5;0.5 0
c p weight 12 0.5;0.5;0.5;0.5;0.5 0
c p weight -12 0.5;0.5;0.5;0.5;0.5 0
c p weight 13 1.0;1.0;1.0;1.0;1.0 0
c p weight -13 1.0;0.0;1.0;1.0;1.0 0
c p weight 14 0.5;0.5;0.5;0.5;0.5 0
c p weight -14 0.5;0.5;0.5;0.5;0.5 0
c p weight 15 1.0;1.0;1.0;1.0;1.0 0
c p weight -15 1.0;1.0;0.0;1.0;1.0 0
c p weight 16 0.5;0.5;0.5;0.5;0.5 0
c p weight -16 0.5;0.5;0.5;0.5;0.5 0
c p weight 17 1.0;1.0;1.0;1.0;1.0 0
c p weight -17 1.0;1.0;1.0;0.0;1.0 0
c p weight 18 1.0;1.0;1.0;1.0;1.0 0
c p weight -18 1.0;1.0;1.0;1.0;0.0 0
c p weight 19 0.5;0.5;0.5;0.5;0.5 0
c p weight -19 0.5;0.5;0.5;0.5;0.5 0
c p weight 20 0.5;0.5;0.5;0.5;0.5 0
c p weight -20 0.5;0.5;0.5;0.5;0.5 0
c p weight 21 0.5;0.5;0.5;0.5;0.5 0
c p weight -21 0.5;0.5;0.5;0.5;0.5 0
c p weight 22 0.5;0.5;0.5;0.5;0.5 0
c p weight -22 0.5;0.5;0.5;0.5;0.5 0
c p weight 23 0.5;0.5;0.5;0.5;0.5 0
c p weight -23 0.5;0.5;0.5;0.5;0.5 0
c p weight 24 1.0;1.0;1.0;1.0;1.0 0
c p weight -24 1.0;1.0;1.0;1.0;1.0 0
c p weight 25 1.0;1.0;1.0;1.0;1.0 0
c p weight -25 1.0;1.0;1.0;1.0;1.0 0
c p weight 26 1.0;1.0;1.0;1.0;1.0 0
c p weight -26 1.0;1.0;1.0;1.0;1.0 0
c p weight 27 1.0;1.0;1.0;1.0;1.0 0
c p weight -27 1.0;1.0;1.0;1.0;1.0 0
c p weight 28 1.0;1.0;1.0;1.0;1.0 0
c p weight -28 1.0;1.0;1.0;1.0;1.0 0
c p weight 29 1.0;1.0;1.0;1.0;1.0 0
c p weight -29 1.0;1.0;1.0;1.0;1.0 0
c p weight 30 1.0;1.0;1.0;1.0;1.0 0
c p weight -30 1.0;1.0;1.0;1.0;1.0 0
c p weight 31 1.0;1.0;1.0;1.0;1.0 0
c p weight -31 1.0;1.0;1.0;1.0;1.0 0
c p weight 32 1.0;1.0;1.0;1.0;1.0 0
c p weight -32 1.0;1.0;1.0;1.0;1.0 0
c p weight 33 1.0;1.0;1.0;1.0;1.0 0
c p weight -33 1.0;1.0;1.0;1.0;1.0 0
c p weight 34 1.0;1.0;1.0;1.0;1.0 0
c p weight -34 1.0;1.0;1.0;1.0;1.0 0
c p weight 35 1.0;1.0;1.0;1.0;1.0 0
c p weight -35 1.0;1.0;1.0;1.0;1.0 0
c p weight 36 1.0;1.0;1.0;1.0;1.0 0
c p weight -36 1.0;1.0;1.0;1.0;1.0 0
c p weight 37 1.0;1.0;1.0;1.0;1.0 0
c p weight -37 1.0;1.0;1.0;1.0;1.0 0
c p weight 38 1.0;1.0;1.0;1.0;1.0 0
c p weight -38 1.0;1.0;1.0;1.0;1.0 0
c p weight 39 1.0;1.0;1.0;1.0;1.0 0
c p weight -39 1.0;1.0;1.0;1.0;1.0 0
c p weight 40 1.0;1.0;1.0;1.0;1.0 0
c p weight -40 1.0;1.0;1.0;1.0;1.0 0
c p weight 41 1.0;1.0;1.0;1.0;1.0 0
c p weight -41 1.0;1.0;1.0;1.0;1.0 0
c p weight 42 1.0;1.0;1.0;1.0;1.0 0
c p weight -42 1.0;1.0;1.0;1.0;1.0 0
c p weight 43 1.0;1.0;1.0;1.0;1.0 0
c p weight -43 1.0;1.0;1.0;1.0;1.0 0
c p weight 44 1.0;1.0;1.0;1.0;1.0 0
c p weight -44 1.0;1.0;1.0;1.0;1.0 0
c p weight 45 1.0;1.0;1.0;1.0;1.0 0
c p weight -45 1.0;1.0;1.0;1.0;1.0 0
c p semirings aspmc.semirings.probabilistic 0
c p quantify 1 2 3 4 5 6 7 8 9 10 11 12 13 14 15 16 17 18 19 20 21 22 23 24 25 26 27 28 29 30 31 32 33 34 35 36 37 38 39 40 41 42 43 44 45 0
c p auxilliary 1 2 3 4 5 6 7 8 9 24 25 26 27 28 29 30 31 32 33 34 35 36 37 38 39 40 41 42 43 44 45 0
